NAME : tsp25_30.137.tour
COMMENT : Length = 137
COMMENT : Found by LKH [Keld Helsgaun]
TYPE : TOUR
DIMENSION : 25
TOUR_SECTION
1
9
8
24
22
6
14
10
12
5
3
2
7
18
25
20
16
4
19
15
21
13
11
23
17
-1
EOF
